2025-10-21 13:38:07,882 - INFO - 📌 第一个 epoch：默认所有模块使用 checkpoint
2025-10-21 13:38:11,282 - INFO - Epoch 1 completed in 3.408364 seconds
2025-10-21 13:38:12,356 - INFO - torch.cuda.max_memory_reserved() : 4.37890625
2025-10-21 13:38:15,182 - INFO - 
[🔁 拟合反向传播时间模型]
2025-10-21 13:38:15,182 - INFO - 总反向传播时间: 2.806612s
2025-10-21 13:38:15,182 - INFO - 拟合模型: backward_total ≈ 2 × (A + B) + b
2025-10-21 13:38:15,182 - INFO - A = 2.138446, B = 0.202396, b = 0.465771s
2025-10-21 13:38:15,205 - INFO - Set parameter LicenseID to value 2706656
2025-10-21 13:38:15,212 - INFO - Set parameter LogToConsole to value 1
2025-10-21 13:38:15,212 - INFO - Set parameter LogFile to value ""
2025-10-21 13:38:15,212 - INFO - Set parameter Threads to value 12
2025-10-21 13:38:15,212 - INFO - Set parameter TimeLimit to value 3600
2025-10-21 13:38:15,212 - INFO - Set parameter OptimalityTol to value 0.0001
2025-10-21 13:38:15,212 - INFO - Set parameter IntFeasTol to value 1e-05
2025-10-21 13:38:15,212 - INFO - Set parameter StartNodeLimit to value 10000000
2025-10-21 13:38:15,274 - INFO - Set parameter TimeLimit to value 3600
2025-10-21 13:38:15,274 - INFO - 
2025-10-21 13:38:15,274 - INFO - 
2025-10-21 13:38:15,274 - INFO - Restarting solve
2025-10-21 13:38:15,274 - INFO - 
2025-10-21 13:38:15,274 - INFO - 
2025-10-21 13:38:15,275 - INFO - Gurobi Optimizer version 12.0.3 build v12.0.3rc0 (linux64 - "Ubuntu 20.04.6 LTS")
2025-10-21 13:38:15,275 - INFO - 
2025-10-21 13:38:15,276 - INFO - CPU model: Intel(R) Xeon(R) Platinum 8260 CPU @ 2.40GHz, instruction set [SSE2|AVX|AVX2|AVX512]
2025-10-21 13:38:15,276 - INFO - Thread count: 48 physical cores, 96 logical processors, using up to 12 threads
2025-10-21 13:38:15,276 - INFO - 
2025-10-21 13:38:15,276 - INFO - Non-default parameters:
2025-10-21 13:38:15,276 - INFO - TimeLimit  3600
2025-10-21 13:38:15,276 - INFO - OptimalityTol  0.0001
2025-10-21 13:38:15,276 - INFO - StartNodeLimit  10000000
2025-10-21 13:38:15,276 - INFO - Threads  12
2025-10-21 13:38:15,276 - INFO - 
2025-10-21 13:38:15,276 - INFO - Optimize a model with 5603 rows, 3584 columns and 15200 nonzeros
2025-10-21 13:38:15,276 - INFO - Model fingerprint: 0xa2052a95
2025-10-21 13:38:15,276 - INFO - Variable types: 1024 continuous, 2560 integer (2560 binary)
2025-10-21 13:38:15,276 - INFO - Coefficient statistics:
2025-10-21 13:38:15,276 - INFO -   Matrix range     [1e+00, 2e+15]
2025-10-21 13:38:15,276 - INFO -   Objective range  [6e+04, 6e+05]
2025-10-21 13:38:15,276 - INFO -   Bounds range     [1e+00, 7e+15]
2025-10-21 13:38:15,276 - INFO -   RHS range        [1e+00, 7e+15]
2025-10-21 13:38:15,276 - INFO - Warning: Model contains large matrix coefficient range
2025-10-21 13:38:15,277 - INFO - Warning: Model contains large rhs
2025-10-21 13:38:15,277 - INFO - Warning: Model contains large bounds
2025-10-21 13:38:15,277 - INFO -          Consider reformulating model or setting NumericFocus parameter
2025-10-21 13:38:15,277 - INFO -          to avoid numerical issues.
2025-10-21 13:38:15,290 - INFO - Presolve removed 4283 rows and 1964 columns
2025-10-21 13:38:15,290 - INFO - Presolve time: 0.01s
2025-10-21 13:38:15,290 - INFO - Presolved: 1320 rows, 1620 columns, 4514 nonzeros
2025-10-21 13:38:15,291 - INFO - Variable types: 0 continuous, 1620 integer (1095 binary)
2025-10-21 13:38:15,302 - INFO - 
2025-10-21 13:38:15,302 - INFO - Root relaxation: objective 1.039156e+07, 471 iterations, 0.00 seconds (0.01 work units)
2025-10-21 13:38:15,309 - INFO - 
2025-10-21 13:38:15,309 - INFO -     Nodes    |    Current Node    |     Objective Bounds      |     Work
2025-10-21 13:38:15,309 - INFO -  Expl Unexpl |  Obj  Depth IntInf | Incumbent    BestBd   Gap | It/Node Time
2025-10-21 13:38:15,309 - INFO - 
2025-10-21 13:38:15,309 - INFO -      0     0 1.0392e+07    0   69          - 1.0392e+07      -     -    0s
2025-10-21 13:38:15,343 - INFO - H    0     0                    1.424326e+07 1.0392e+07  27.0%     -    0s
2025-10-21 13:38:15,344 - INFO -      0     0 1.0446e+07    0  277 1.4243e+07 1.0446e+07  26.7%     -    0s
2025-10-21 13:38:15,356 - INFO -      0     0 1.0473e+07    0  139 1.4243e+07 1.0473e+07  26.5%     -    0s
2025-10-21 13:38:15,370 - INFO -      0     0 1.0475e+07    0  158 1.4243e+07 1.0475e+07  26.5%     -    0s
2025-10-21 13:38:15,375 - INFO -      0     0 1.0475e+07    0  285 1.4243e+07 1.0475e+07  26.5%     -    0s
2025-10-21 13:38:15,385 - INFO -      0     0 1.0477e+07    0  232 1.4243e+07 1.0477e+07  26.4%     -    0s
2025-10-21 13:38:15,396 - INFO -      0     0 1.0480e+07    0  384 1.4243e+07 1.0480e+07  26.4%     -    0s
2025-10-21 13:38:15,398 - INFO -      0     0 1.0480e+07    0  385 1.4243e+07 1.0480e+07  26.4%     -    0s
2025-10-21 13:38:15,412 - INFO -      0     0 1.0480e+07    0  404 1.4243e+07 1.0480e+07  26.4%     -    0s
2025-10-21 13:38:15,432 - INFO -      0     2 1.0480e+07    0  404 1.4243e+07 1.0480e+07  26.4%     -    0s
2025-10-21 13:38:15,525 - INFO - *  369   374              27    1.177852e+07 1.0487e+07  11.0%   5.3    0s
2025-10-21 13:38:15,526 - INFO - *  384   374              25    1.083159e+07 1.0487e+07  3.18%   5.5    0s
2025-10-21 13:38:15,541 - INFO - *  427   420              39    1.070701e+07 1.0487e+07  2.05%   6.5    0s
2025-10-21 13:38:15,547 - INFO - *  526   475              42    1.064123e+07 1.0488e+07  1.44%   5.8    0s
2025-10-21 13:38:15,587 - INFO - *  837   725              15    1.052918e+07 1.0488e+07  0.39%   4.8    0s
2025-10-21 13:38:15,590 - INFO - 
2025-10-21 13:38:15,590 - INFO - Cutting planes:
2025-10-21 13:38:15,590 - INFO -   Cover: 39
2025-10-21 13:38:15,590 - INFO -   GUB cover: 1
2025-10-21 13:38:15,590 - INFO - 
2025-10-21 13:38:15,590 - INFO - Explored 1186 nodes (5431 simplex iterations) in 0.31 seconds (0.26 work units)
2025-10-21 13:38:15,590 - INFO - Thread count was 12 (of 96 available processors)
2025-10-21 13:38:15,590 - INFO - 
2025-10-21 13:38:15,591 - INFO - Solution count 6: 1.05292e+07 1.06412e+07 1.0707e+07 ... 1.42433e+07
2025-10-21 13:38:15,591 - INFO - 
2025-10-21 13:38:15,591 - INFO - Optimal solution found (tolerance 1.00e-04)
2025-10-21 13:38:15,591 - INFO - Best objective 1.052917500000e+07, best bound 1.052917500000e+07, gap 0.0000%
2025-10-21 13:38:15,603 - INFO - 规划前的显存GB：6.0
2025-10-21 13:38:15,603 - INFO - 规划后的显存GB：5.296943664550781
2025-10-21 13:38:15,603 - INFO - ✅ 最优策略：[1, 1, 1, 1, 1, 1, 0, 1, 1, 0, 0, 0, 0, 0, 0, 0]
2025-10-21 13:38:15,603 - INFO - 📌 checkpoint 的欧氏长度:, [283]
2025-10-21 13:38:15,603 - INFO - 📌 checkpoint 的余弦长度:, [80, 121, 161, 202, 242, 283, 324]
2025-10-21 13:38:15,603 - INFO - 💾 最终显存峰值：%.2f MB % 8692.373695373535
2025-10-21 13:38:15,604 - INFO - Epoch 2 completed in 3.247294 seconds
2025-10-21 13:38:15,604 - INFO - torch.cuda.max_memory_reserved() : 4.37890625
2025-10-21 13:38:17,993 - INFO - Epoch 3 completed in 2.388224 seconds
2025-10-21 13:38:17,993 - INFO - 
====================== [第1个 Epoch 收集统计数据] ======================
2025-10-21 13:38:17,993 - INFO - 
🔍 EUCLIDEAN modules:
2025-10-21 13:38:17,993 - INFO - [Shapelet  40] forward_avg=0.004124s over 12 calls | peak=343.57MB | final=0.00MB
2025-10-21 13:38:17,993 - INFO - [Shapelet  80] forward_avg=0.004249s over 12 calls | peak=601.19MB | final=0.00MB
2025-10-21 13:38:17,993 - INFO - [Shapelet 121] forward_avg=0.005169s over 12 calls | peak=791.72MB | final=0.00MB
2025-10-21 13:38:17,993 - INFO - [Shapelet 161] forward_avg=0.005495s over 12 calls | peak=905.43MB | final=0.00MB
2025-10-21 13:38:17,993 - INFO - [Shapelet 202] forward_avg=0.005597s over 12 calls | peak=946.48MB | final=0.00MB
2025-10-21 13:38:17,993 - INFO - [Shapelet 242] forward_avg=0.005419s over 12 calls | peak=915.59MB | final=0.00MB
2025-10-21 13:38:17,993 - INFO - [Shapelet 283] forward_avg=0.004703s over 12 calls | peak=810.62MB | final=0.00MB
2025-10-21 13:38:17,993 - INFO - [Shapelet 324] forward_avg=0.004288s over 12 calls | peak=628.61MB | final=0.00MB
2025-10-21 13:38:17,993 - INFO - 
🔍 COSINE modules:
2025-10-21 13:38:17,993 - INFO - [Shapelet  40] forward_avg=0.002146s over 12 calls | peak=220.75MB | final=0.00MB
2025-10-21 13:38:17,993 - INFO - [Shapelet  80] forward_avg=0.002071s over 12 calls | peak=390.83MB | final=0.00MB
2025-10-21 13:38:17,993 - INFO - [Shapelet 121] forward_avg=0.002691s over 12 calls | peak=515.69MB | final=0.00MB
2025-10-21 13:38:17,993 - INFO - [Shapelet 161] forward_avg=0.002926s over 12 calls | peak=589.82MB | final=0.00MB
2025-10-21 13:38:17,993 - INFO - [Shapelet 202] forward_avg=0.003098s over 12 calls | peak=615.21MB | final=0.00MB
2025-10-21 13:38:17,993 - INFO - [Shapelet 242] forward_avg=0.002929s over 12 calls | peak=592.28MB | final=0.00MB
2025-10-21 13:38:17,993 - INFO - [Shapelet 283] forward_avg=0.002344s over 12 calls | peak=520.11MB | final=0.00MB
2025-10-21 13:38:17,993 - INFO - [Shapelet 324] forward_avg=0.002151s over 12 calls | peak=396.44MB | final=0.00MB
2025-10-21 13:38:17,994 - INFO - 
🔍 CROSS modules:
2025-10-21 13:38:17,994 - INFO - [Shapelet  40] forward_avg=0.002799s over 12 calls
2025-10-21 13:38:17,994 - INFO - [Shapelet  80] forward_avg=0.000607s over 12 calls
2025-10-21 13:38:17,994 - INFO - [Shapelet 121] forward_avg=0.000658s over 12 calls
2025-10-21 13:38:17,994 - INFO - [Shapelet 161] forward_avg=0.000770s over 12 calls
2025-10-21 13:38:17,994 - INFO - [Shapelet 202] forward_avg=0.000871s over 12 calls
2025-10-21 13:38:17,994 - INFO - [Shapelet 242] forward_avg=0.000839s over 12 calls
2025-10-21 13:38:17,994 - INFO - [Shapelet 283] forward_avg=0.000896s over 12 calls
2025-10-21 13:38:17,994 - INFO - [Shapelet 324] forward_avg=0.000994s over 12 calls
2025-10-21 13:38:17,994 - INFO - 
💾 模型第一次反向传播阶段的显存峰值（所有模块中的最大值）: 4723.51 MB
2025-10-21 13:38:17,994 - INFO - 
💾 模型初始显存: 23.05 MB
2025-10-21 13:38:17,994 - INFO - =======================================================================

2025-10-21 13:38:17,994 - INFO - torch.cuda.max_memory_reserved() : 5.21875
2025-10-21 13:38:20,326 - INFO - Epoch 4 completed in 2.331113 seconds
2025-10-21 13:38:20,326 - INFO - torch.cuda.max_memory_reserved() : 5.220703125
2025-10-21 13:38:22,745 - INFO - Epoch 5 completed in 2.416684 seconds
2025-10-21 13:38:22,746 - INFO - torch.cuda.max_memory_reserved() : 5.220703125
2025-10-21 13:38:25,146 - INFO - Epoch 6 completed in 2.398500 seconds
2025-10-21 13:38:25,146 - INFO - torch.cuda.max_memory_reserved() : 5.220703125
2025-10-21 13:38:27,575 - INFO - Epoch 7 completed in 2.428476 seconds
2025-10-21 13:38:27,575 - INFO - torch.cuda.max_memory_reserved() : 5.220703125
2025-10-21 13:38:30,110 - INFO - Epoch 8 completed in 2.534078 seconds
2025-10-21 13:38:30,110 - INFO - torch.cuda.max_memory_reserved() : 5.220703125
2025-10-21 13:38:32,468 - INFO - Epoch 9 completed in 2.357059 seconds
2025-10-21 13:38:32,468 - INFO - torch.cuda.max_memory_reserved() : 5.220703125
2025-10-21 13:38:34,927 - INFO - Epoch 10 completed in 2.457956 seconds
2025-10-21 13:38:35,992 - INFO - torch.cuda.max_memory_reserved() : 5.220703125
2025-10-21 13:38:35,993 - INFO - !!!采用策略后的几个epoch 平均时间:2.4140113592147827
2025-10-21 13:38:35,993 - INFO - 



